set VV := 0 1 2 3 4 5 6 7 8 9 10 11 12 13 14 15 16 17 18 19 20 21 22 23 24 25 26 27 28 29 30 31 32 33 34 35 36 37 38 39 40 41 ;
set VS := 0 1 2 3 4 5 6 7 8 9 10 11 12 13 14 15 16 17 18 19 20 21 22 23 24 25 26 27 28 29 30 31 32 33 34 35 36 37 38 39 40 41 42 43 44 45 46 47 48 49 50 51 52 53 54 55 56 57 58 59 60 61 62 63 64 65 66 67 68 69 70 71 72 73 74 75 76 77 78 79 80 81 82 83 84 85 86 87 88 ;
param cv := 
0 16
1 20
2 16
3 15
4 23
5 16
6 18
7 11
8 25
9 10
10 14
11 19
12 14
13 16
14 19
15 25
16 12
17 13
18 19
19 10
20 25
21 19
22 11
23 22
24 11
25 22
26 21
27 17
28 13
29 24
30 17
31 19
32 25
33 23
34 15
35 11
36 20
37 24
38 19
39 15
40 13
41 20
;
param cs := 
0 36
1 35
2 28
3 30
4 30
5 36
6 21
7 25
8 40
9 34
10 37
11 40
12 20
13 40
14 20
15 29
16 28
17 32
18 27
19 23
20 34
21 28
22 32
23 31
24 28
25 33
26 27
27 20
28 38
29 27
30 26
31 22
32 32
33 21
34 22
35 35
36 29
37 27
38 27
39 28
40 38
41 35
42 22
43 28
44 39
45 26
46 27
47 36
48 20
49 32
50 22
51 37
52 24
53 25
54 31
55 27
56 38
57 35
58 34
59 24
60 32
61 36
62 30
63 25
64 20
65 28
66 39
67 28
68 24
69 25
70 31
71 30
72 23
73 20
74 40
75 40
76 40
77 20
78 30
79 38
80 30
81 38
82 21
83 35
84 23
85 35
86 26
87 34
88 27
;
param bv:	 0 1 2 3 4 5 6 7 8 9 10 11 12 13 14 15 16 17 18 19 20 21 22 23 24 25 26 27 28 29 30 31 32 33 34 35 36 37 38 39 40 41 := 
		0 0 0 0 0 0 0 0 0 0 13 22 0 0 0 0 0 23 0 0 10 0 0 0 0 0 0 0 0 0 0 0 0 0 0 0 0 0 0 0 16 21 0 
		1 0 0 0 0 0 0 0 0 0 0 0 0 0 0 0 0 0 0 0 0 0 0 0 0 0 0 0 12 0 0 0 0 0 0 0 0 0 0 0 0 0 0 
		2 0 0 0 0 0 0 0 0 14 0 0 0 0 16 0 0 15 0 0 24 16 0 0 0 0 0 14 25 0 0 0 20 0 0 0 0 0 0 0 0 0 0 
		3 0 0 0 0 0 0 0 0 0 25 0 0 0 0 18 0 24 0 0 0 0 0 0 0 0 17 0 12 0 0 0 13 10 0 25 13 0 0 0 0 0 0 
		4 0 0 0 0 0 0 0 0 0 11 0 0 0 0 0 0 0 0 0 0 0 0 0 0 0 0 0 18 0 0 11 0 0 0 0 0 0 0 0 14 0 0 
		5 0 0 0 0 0 0 0 0 12 0 0 0 0 0 12 0 0 0 12 0 0 0 0 0 0 0 0 0 0 0 0 0 0 0 0 0 0 0 0 0 0 0 
		6 0 0 0 0 0 0 0 0 0 14 14 0 0 0 0 21 0 0 0 0 15 0 0 0 0 0 10 0 17 0 0 0 0 0 0 0 0 0 0 0 0 0 
		7 0 0 0 0 0 0 0 0 0 0 0 0 0 0 0 0 0 0 0 0 14 0 0 0 0 0 0 0 0 0 0 0 0 0 14 0 20 0 0 0 0 17 
		8 0 0 0 0 0 0 0 0 0 0 0 0 0 0 0 0 0 0 0 0 0 0 0 0 0 0 0 23 0 0 0 0 0 0 0 0 13 0 0 0 0 0 
		9 0 0 0 0 0 0 0 0 0 0 0 0 0 22 0 0 0 0 0 0 0 0 0 0 0 0 0 0 0 0 0 0 0 0 0 0 0 0 0 25 0 0 
		10 0 0 0 0 0 0 0 0 0 0 0 0 0 0 0 0 0 0 0 0 0 0 0 0 0 0 0 0 0 0 0 0 0 0 0 0 0 0 0 24 0 0 
		11 0 0 0 0 0 0 0 0 0 0 0 0 0 0 0 0 0 0 0 0 0 0 0 0 0 0 0 0 20 0 0 0 0 0 0 0 0 0 0 0 0 0 
		12 0 0 0 0 0 0 0 0 0 0 0 0 0 0 0 0 23 0 0 0 0 0 0 0 0 0 0 0 0 0 0 15 0 0 0 0 0 0 0 0 0 0 
		13 0 0 0 0 0 0 0 0 0 0 0 0 0 0 13 0 0 23 0 0 0 10 0 0 0 10 0 0 0 0 0 0 0 17 0 0 10 11 0 0 0 0 
		14 0 0 0 0 0 0 0 0 0 0 0 0 0 0 0 0 0 0 0 0 0 25 0 0 0 0 0 0 0 0 0 0 0 0 0 0 0 0 15 0 0 0 
		15 0 0 0 0 0 0 0 0 0 0 0 0 0 0 0 0 0 0 0 17 0 0 0 0 0 0 0 24 0 0 0 0 0 0 0 0 0 0 0 0 0 0 
		16 0 0 0 0 0 0 0 0 0 0 0 0 0 0 0 0 0 0 0 0 0 25 0 0 0 0 0 0 0 0 0 0 0 0 22 0 0 0 0 0 0 0 
		17 0 0 0 0 0 0 0 0 0 0 0 0 0 0 0 0 0 0 0 0 0 0 23 0 0 0 0 0 0 0 0 22 0 16 0 0 0 0 0 0 0 20 
		18 0 0 0 0 0 0 0 0 0 0 0 0 0 0 0 0 0 0 0 0 0 0 0 17 0 0 0 0 0 0 0 0 0 0 21 0 0 0 0 0 0 0 
		19 0 0 0 0 0 0 0 0 0 0 0 0 0 0 0 0 0 0 0 0 18 0 0 0 0 23 0 20 0 0 0 0 0 0 0 0 0 0 0 0 0 0 
		20 0 0 0 0 0 0 0 0 0 0 0 0 0 0 0 0 0 0 0 0 0 0 0 0 0 0 0 21 0 0 0 17 0 0 0 0 0 0 0 0 0 0 
		21 0 0 0 0 0 0 0 0 0 0 0 0 0 0 0 0 0 0 0 0 0 0 0 0 0 0 0 10 0 0 0 0 0 0 0 0 11 0 0 0 0 0 
		22 0 0 0 0 0 0 0 0 0 0 0 0 0 0 0 0 0 0 0 0 0 0 0 0 0 0 0 0 22 0 0 0 15 0 0 0 0 0 0 0 0 0 
		23 0 0 0 0 0 0 0 0 0 0 0 0 0 0 0 0 0 0 0 0 0 0 0 0 0 14 0 0 0 0 0 0 0 0 0 0 0 0 10 0 0 0 
		24 0 0 0 0 0 0 0 0 0 0 0 0 0 0 0 0 0 0 0 0 0 0 0 0 0 0 0 0 0 0 0 0 0 0 18 0 15 14 0 0 0 0 
		25 0 0 0 0 0 0 0 0 0 0 0 0 0 0 0 0 0 0 0 0 0 0 0 0 0 0 12 0 0 0 0 0 21 0 0 0 0 0 0 0 0 0 
		26 0 0 0 0 0 0 0 0 0 0 0 0 0 0 0 0 0 0 0 0 0 0 0 0 0 0 0 0 0 0 19 0 0 0 0 0 0 0 0 0 0 11 
		27 0 0 0 0 0 0 0 0 0 0 0 0 0 0 0 0 0 0 0 0 0 0 0 0 0 0 0 0 0 0 0 0 0 0 0 0 0 0 0 0 0 0 
		28 0 0 0 0 0 0 0 0 0 0 0 0 0 0 0 0 0 0 0 0 0 0 0 0 0 0 0 0 0 0 0 0 0 0 0 0 0 0 0 0 0 0 
		29 0 0 0 0 0 0 0 0 0 0 0 0 0 0 0 0 0 0 0 0 0 0 0 0 0 0 0 0 0 0 0 23 19 0 0 0 0 0 0 0 0 0 
		30 0 0 0 0 0 0 0 0 0 0 0 0 0 0 0 0 0 0 0 0 0 0 0 0 0 0 0 0 0 0 0 0 0 0 0 0 0 0 0 0 0 0 
		31 0 0 0 0 0 0 0 0 0 0 0 0 0 0 0 0 0 0 0 0 0 0 0 0 0 0 0 0 0 0 0 0 0 0 0 0 0 0 0 0 0 0 
		32 0 0 0 0 0 0 0 0 0 0 0 0 0 0 0 0 0 0 0 0 0 0 0 0 0 0 0 0 0 0 0 0 0 0 0 0 0 0 0 0 25 0 
		33 0 0 0 0 0 0 0 0 0 0 0 0 0 0 0 0 0 0 0 0 0 0 0 0 0 0 0 0 0 0 0 0 0 0 0 0 0 0 0 0 0 0 
		34 0 0 0 0 0 0 0 0 0 0 0 0 0 0 0 0 0 0 0 0 0 0 0 0 0 0 0 0 0 0 0 0 0 0 0 0 18 0 0 0 0 0 
		35 0 0 0 0 0 0 0 0 0 0 0 0 0 0 0 0 0 0 0 0 0 0 0 0 0 0 0 0 0 0 0 0 0 0 0 0 0 0 0 0 0 0 
		36 0 0 0 0 0 0 0 0 0 0 0 0 0 0 0 0 0 0 0 0 0 0 0 0 0 0 0 0 0 0 0 0 0 0 0 0 0 0 0 0 22 19 
		37 0 0 0 0 0 0 0 0 0 0 0 0 0 0 0 0 0 0 0 0 0 0 0 0 0 0 0 0 0 0 0 0 0 0 0 0 0 0 0 0 0 24 
		38 0 0 0 0 0 0 0 0 0 0 0 0 0 0 0 0 0 0 0 0 0 0 0 0 0 0 0 0 0 0 0 0 0 0 0 0 0 0 0 0 0 0 
		39 0 0 0 0 0 0 0 0 0 0 0 0 0 0 0 0 0 0 0 0 0 0 0 0 0 0 0 0 0 0 0 0 0 0 0 0 0 0 0 0 0 0 
		40 0 0 0 0 0 0 0 0 0 0 0 0 0 0 0 0 0 0 0 0 0 0 0 0 0 0 0 0 0 0 0 0 0 0 0 0 0 0 0 0 0 0 
		41 0 0 0 0 0 0 0 0 0 0 0 0 0 0 0 0 0 0 0 0 0 0 0 0 0 0 0 0 0 0 0 0 0 0 0 0 0 0 0 0 0 0 
;
param bs:	 0 1 2 3 4 5 6 7 8 9 10 11 12 13 14 15 16 17 18 19 20 21 22 23 24 25 26 27 28 29 30 31 32 33 34 35 36 37 38 39 40 41 42 43 44 45 46 47 48 49 50 51 52 53 54 55 56 57 58 59 60 61 62 63 64 65 66 67 68 69 70 71 72 73 74 75 76 77 78 79 80 81 82 83 84 85 86 87 88 := 
		0 0 0 0 0 0 0 0 0 0 0 0 0 0 0 0 0 0 0 0 28 0 0 0 0 0 39 24 0 22 0 0 0 0 0 0 0 0 0 20 0 0 29 0 0 0 0 0 0 0 26 0 0 0 0 0 0 20 0 0 0 0 0 0 0 0 0 0 0 33 0 0 0 0 0 0 0 0 36 0 0 0 0 0 35 0 0 0 0 0 
		1 0 0 25 0 0 0 0 22 0 0 0 28 0 0 0 0 0 0 0 0 0 0 0 0 0 0 0 0 0 0 0 0 0 0 0 0 0 0 0 0 0 0 0 0 0 0 0 0 0 0 0 0 0 0 31 0 0 0 0 0 0 0 0 0 0 0 0 0 0 0 0 0 0 0 0 22 0 0 0 0 0 0 0 0 0 35 0 0 0 
		2 0 25 0 0 0 0 0 0 0 0 0 0 0 0 0 0 0 0 0 0 0 0 0 0 25 0 0 0 0 0 0 0 0 38 0 0 0 0 0 0 0 0 0 0 0 0 0 0 0 0 31 0 0 0 0 0 0 0 0 0 0 0 0 0 0 0 0 0 0 0 0 0 33 0 0 0 0 0 0 0 0 0 0 0 0 0 0 0 0 
		3 0 0 0 0 0 0 0 0 0 0 40 0 0 0 0 0 0 0 0 0 0 0 0 0 0 0 0 0 0 33 0 0 0 0 0 0 0 0 0 0 0 0 0 0 0 0 0 22 0 0 0 0 0 0 0 0 0 0 0 38 0 0 0 0 0 0 0 33 0 0 0 0 36 0 0 0 0 0 34 0 22 0 0 0 0 0 0 0 21 
		4 0 0 0 0 0 31 0 0 0 0 0 0 0 0 0 0 0 0 0 0 0 27 0 0 0 0 0 0 0 0 0 0 0 0 0 0 0 0 0 39 20 32 0 0 0 0 0 0 0 0 0 32 0 0 0 0 0 0 0 0 27 37 21 0 0 29 0 0 0 25 0 0 0 0 32 0 0 0 0 37 0 0 0 0 0 0 0 0 0 
		5 0 0 0 0 31 0 0 0 0 0 0 0 0 0 29 0 0 0 0 0 31 0 0 0 0 0 0 0 0 0 0 0 0 0 0 0 0 0 21 0 0 20 0 0 0 0 0 0 0 21 0 0 0 0 21 21 20 0 0 0 0 0 37 0 0 0 0 0 0 0 0 0 0 0 0 0 27 0 0 0 0 37 0 0 0 0 0 0 0 
		6 0 0 0 0 0 0 0 0 0 0 0 0 0 0 0 0 0 0 29 0 0 0 0 34 39 0 0 0 0 0 0 0 0 32 38 0 0 0 0 0 0 0 31 0 0 0 36 0 0 0 0 0 0 0 0 0 0 0 0 0 0 0 0 0 0 0 0 33 38 0 0 0 0 0 0 0 37 0 0 0 0 0 39 0 0 0 0 0 0 
		7 0 22 0 0 0 0 0 0 0 0 0 0 27 0 0 0 0 0 0 0 0 0 32 0 23 0 0 25 0 0 0 0 0 0 0 0 0 0 0 0 0 20 0 0 0 0 0 0 0 38 0 0 0 0 0 0 0 0 0 0 0 0 0 0 0 38 0 0 28 0 0 0 0 0 0 0 0 0 0 0 0 22 0 22 0 0 0 0 0 
		8 0 0 0 0 0 0 0 0 0 0 0 0 0 0 0 0 0 0 0 0 0 0 0 0 28 35 0 0 0 0 0 0 0 0 0 0 0 0 0 0 0 0 0 0 0 0 0 0 0 0 0 0 0 0 0 0 0 0 0 0 0 0 0 0 0 0 0 30 0 0 0 0 28 0 0 0 0 40 0 0 0 0 29 0 0 0 0 0 0 
		9 0 0 0 0 0 0 0 0 0 0 0 0 0 0 32 0 27 0 0 36 39 0 0 0 39 0 0 0 26 0 0 0 0 0 24 0 0 27 0 0 0 0 0 0 0 0 35 0 0 39 0 0 0 0 0 0 25 0 0 0 0 23 0 0 0 0 0 0 0 0 0 0 0 0 0 0 0 21 0 0 0 0 0 0 0 0 37 0 40 
		10 0 0 0 40 0 0 0 0 0 0 0 28 0 0 0 0 0 0 0 0 0 32 0 0 0 0 24 0 0 0 0 0 0 0 0 28 0 37 30 0 0 0 0 0 0 0 0 0 0 0 31 0 0 0 0 31 0 0 0 0 0 0 39 0 0 27 0 0 0 0 0 0 20 0 0 0 23 0 0 0 21 0 0 0 0 0 0 0 0 
		11 0 28 0 0 0 0 0 0 0 0 28 0 0 0 0 0 0 34 0 0 0 0 0 0 0 0 0 0 0 0 0 0 0 0 33 0 0 0 0 0 0 0 0 0 0 0 0 0 0 0 0 0 0 0 0 0 0 0 0 0 0 0 0 0 0 0 0 32 0 31 30 0 0 0 0 0 0 0 0 0 0 0 0 0 0 0 29 0 0 
		12 0 0 0 0 0 0 0 27 0 0 0 0 0 0 0 0 25 0 28 0 0 37 0 0 0 0 0 0 0 0 0 0 0 0 0 0 0 0 0 0 0 0 0 0 0 0 0 0 0 0 0 0 0 0 0 0 0 0 20 0 0 27 0 29 0 0 0 0 0 0 0 0 0 0 33 0 0 0 0 0 0 34 0 25 0 0 0 0 0 
		13 0 0 0 0 0 0 0 0 0 0 0 0 0 0 0 0 0 0 0 31 0 0 0 0 0 23 0 0 0 0 0 20 0 0 0 0 39 0 0 0 0 0 0 0 0 0 0 0 0 0 0 0 0 0 0 0 0 30 0 0 0 0 0 0 0 0 0 0 0 0 0 0 0 0 36 0 0 0 0 0 37 0 0 0 0 0 0 0 0 
		14 0 0 0 0 0 29 0 0 0 32 0 0 0 0 0 0 0 0 0 0 0 0 0 0 27 0 0 0 36 0 0 0 0 0 0 0 0 0 32 0 0 27 0 0 0 0 0 0 0 0 0 0 0 0 0 0 0 0 0 0 26 0 0 0 0 0 0 0 29 0 0 0 0 0 0 0 0 0 0 0 0 0 0 0 0 0 0 0 0 
		15 0 0 0 0 0 0 0 0 0 0 0 0 0 0 0 0 0 0 0 0 0 0 0 20 0 0 0 0 0 0 0 0 0 0 0 0 0 0 0 0 0 0 0 39 0 0 0 0 0 0 0 22 23 0 36 0 0 0 0 0 0 20 30 0 0 0 0 0 0 0 0 0 22 0 0 0 0 0 0 22 0 0 0 0 0 0 0 34 0 
		16 0 0 0 0 0 0 0 0 0 27 0 0 25 0 0 0 0 0 0 0 0 0 0 0 0 0 0 0 0 0 0 0 33 0 0 0 0 0 0 0 0 0 0 0 0 0 0 0 0 29 0 0 0 21 0 0 27 0 0 0 0 0 0 0 29 0 0 0 0 0 0 0 0 0 0 0 0 0 0 0 0 0 0 0 0 0 0 0 24 
		17 0 0 0 0 0 0 0 0 0 0 0 34 0 0 0 0 0 0 0 36 0 0 0 0 0 0 0 0 0 0 38 0 0 0 0 0 0 0 0 0 0 0 0 0 0 0 0 0 0 0 0 0 0 0 0 0 0 0 0 0 0 0 0 0 0 0 0 0 0 0 0 0 0 0 0 39 0 0 0 0 0 0 0 0 0 0 0 0 0 
		18 0 0 0 0 0 0 29 0 0 0 0 0 28 0 0 0 0 0 0 0 0 0 0 0 0 0 0 0 0 0 0 0 0 0 0 0 35 0 0 35 32 0 0 0 0 0 0 0 0 0 0 0 0 0 0 0 0 0 30 0 0 0 0 0 0 39 0 0 0 0 0 0 0 0 0 0 0 0 0 0 0 0 0 0 0 0 0 31 0 
		19 28 0 0 0 0 0 0 0 0 36 0 0 0 31 0 0 0 36 0 0 34 0 0 0 0 0 0 0 0 0 21 0 38 0 0 0 0 29 32 0 0 0 22 0 0 0 0 0 0 0 0 0 0 0 0 0 0 0 0 0 0 0 0 0 0 0 31 0 0 0 0 0 20 0 0 0 0 0 0 0 0 0 0 0 21 0 0 0 0 
		20 0 0 0 0 0 31 0 0 0 39 0 0 0 0 0 0 0 0 0 34 0 0 0 0 0 0 0 0 0 0 0 0 0 0 0 0 0 0 0 0 0 30 0 0 0 0 0 0 0 0 37 0 0 0 0 0 0 0 0 0 32 38 0 0 24 32 0 0 0 0 0 0 0 0 0 0 0 0 0 0 0 20 0 31 0 0 0 21 0 
		21 0 0 0 0 27 0 0 0 0 0 32 0 37 0 0 0 0 0 0 0 0 0 0 0 0 0 0 0 0 0 0 31 0 33 0 0 0 0 0 0 0 22 0 27 0 0 0 0 0 0 0 30 0 0 0 0 24 0 0 0 0 0 0 0 0 0 0 0 0 37 0 20 0 40 0 0 0 32 0 0 0 0 0 0 0 0 0 22 0 
		22 0 0 0 0 0 0 0 32 0 0 0 0 0 0 0 0 0 0 0 0 0 0 0 0 40 28 0 0 0 0 0 0 0 21 0 0 0 0 0 35 0 0 0 0 0 0 0 0 0 0 0 0 0 0 0 0 0 26 0 0 0 0 0 35 0 0 0 0 0 0 0 0 0 0 0 0 0 0 0 0 0 32 0 0 0 0 0 0 0 
		23 0 0 0 0 0 0 34 0 0 0 0 0 0 0 0 20 0 0 0 0 0 0 0 0 0 0 0 0 0 0 0 0 0 0 0 0 0 0 39 0 0 0 0 0 0 0 0 0 0 0 0 0 0 0 0 0 0 0 0 0 36 0 0 0 0 0 0 0 0 21 0 0 0 0 0 0 0 0 0 35 0 0 0 0 0 0 0 0 0 
		24 0 0 25 0 0 0 39 23 28 39 0 0 0 0 27 0 0 0 0 0 0 0 40 0 0 0 0 0 0 0 0 0 0 0 0 0 0 0 0 0 0 37 0 0 0 0 33 0 0 0 0 0 32 0 0 0 0 0 33 30 27 0 0 32 0 31 0 0 0 0 0 0 0 0 0 0 0 0 0 0 0 0 0 0 0 0 0 0 20 
		25 39 0 0 0 0 0 0 0 35 0 0 0 0 23 0 0 0 0 0 0 0 0 28 0 0 0 38 0 0 0 40 0 0 28 0 0 0 32 0 0 0 35 0 0 0 0 36 23 0 35 0 0 0 0 0 0 0 0 0 0 0 0 0 0 0 0 0 0 0 0 0 0 0 0 0 0 0 0 33 0 0 0 25 0 0 0 0 0 0 
		26 24 0 0 0 0 0 0 0 0 0 24 0 0 0 0 0 0 0 0 0 0 0 0 0 0 38 0 0 24 0 0 0 0 0 0 0 0 0 0 0 0 0 0 0 0 0 0 0 0 0 0 0 0 0 0 36 0 0 0 0 0 0 0 0 0 0 0 0 0 23 0 21 30 0 30 29 0 0 0 0 0 34 0 40 0 0 28 0 0 
		27 0 0 0 0 0 0 0 25 0 0 0 0 0 0 0 0 0 0 0 0 0 0 0 0 0 0 0 0 0 0 22 0 0 0 0 0 0 0 0 0 0 0 0 0 30 0 0 0 0 0 29 0 0 0 0 39 0 0 0 0 0 0 0 0 0 0 0 0 0 0 0 0 0 0 0 37 23 0 0 0 0 0 0 0 21 0 0 0 0 
		28 22 0 0 0 0 0 0 0 0 26 0 0 0 0 36 0 0 0 0 0 0 0 0 0 0 0 24 0 0 0 0 0 0 36 0 0 0 0 0 0 0 0 0 0 0 37 0 0 0 0 24 0 0 0 0 0 0 0 0 0 0 0 0 0 0 0 0 21 32 0 0 0 35 0 0 0 23 0 0 0 0 0 0 0 26 0 0 0 0 
		29 0 0 0 33 0 0 0 0 0 0 0 0 0 0 0 0 0 0 0 0 0 0 0 0 0 0 0 0 0 0 0 0 0 0 0 0 0 0 0 0 0 0 0 0 0 0 0 0 33 0 0 0 0 0 0 0 0 0 0 0 0 0 0 0 0 0 0 0 0 0 0 0 0 0 0 0 0 0 0 37 0 0 0 0 0 0 0 0 0 
		30 0 0 0 0 0 0 0 0 0 0 0 0 0 0 0 0 0 38 0 21 0 0 0 0 0 40 0 22 0 0 0 37 28 0 0 0 0 27 0 0 0 33 0 0 27 0 0 0 0 0 0 0 0 0 0 0 0 0 0 0 0 0 0 0 0 0 33 0 0 0 20 0 0 0 0 0 0 0 30 0 0 0 38 0 35 28 38 0 0 
		31 0 0 0 0 0 0 0 0 0 0 0 0 0 20 0 0 0 0 0 0 0 31 0 0 0 0 0 0 0 0 37 0 0 0 0 0 0 0 0 0 0 0 0 0 0 0 0 0 0 0 0 0 0 30 0 0 39 0 0 0 0 0 0 27 26 0 0 0 0 0 0 0 0 0 28 33 0 0 0 0 31 0 0 0 0 0 0 0 36 
		32 0 0 0 0 0 0 0 0 0 0 0 0 0 0 0 0 33 0 0 38 0 0 0 0 0 0 0 0 0 0 28 0 0 0 0 0 0 0 0 0 0 0 0 0 0 0 20 0 0 0 0 0 0 0 0 28 0 0 0 0 0 0 0 0 0 0 0 0 0 0 0 0 0 0 0 0 0 0 0 0 0 0 0 0 0 38 0 0 0 
		33 0 0 38 0 0 0 32 0 0 0 0 0 0 0 0 0 0 0 0 0 0 33 21 0 0 28 0 0 36 0 0 0 0 0 0 0 0 0 35 0 0 0 40 0 0 0 0 0 0 0 0 0 0 0 0 0 0 0 0 27 0 0 0 0 0 0 0 0 0 0 21 0 0 0 25 0 0 0 0 0 0 0 0 33 0 0 0 0 0 
		34 0 0 0 0 0 0 38 0 0 24 0 33 0 0 0 0 0 0 0 0 0 0 0 0 0 0 0 0 0 0 0 0 0 0 0 0 0 0 29 0 0 0 0 0 0 0 20 0 0 0 0 0 0 0 0 0 0 0 0 29 0 0 0 0 0 0 0 0 0 0 0 0 0 0 0 0 0 34 0 38 0 0 0 0 0 0 0 0 0 
		35 0 0 0 0 0 0 0 0 0 0 28 0 0 0 0 0 0 0 0 0 0 0 0 0 0 0 0 0 0 0 0 0 0 0 0 0 0 34 0 26 0 0 0 0 0 0 0 0 0 0 0 0 0 0 0 0 0 0 0 0 0 0 0 0 0 0 0 28 0 0 0 0 0 0 0 0 0 0 0 0 0 0 0 0 0 0 0 0 0 
		36 0 0 0 0 0 0 0 0 0 0 0 0 0 39 0 0 0 0 35 0 0 0 0 0 0 0 0 0 0 0 0 0 0 0 0 0 0 0 0 0 0 0 0 0 0 0 0 0 0 0 0 0 0 0 0 0 0 37 0 0 0 0 0 28 0 0 0 0 0 0 0 0 0 0 0 0 0 0 0 0 0 0 0 34 0 0 0 0 0 
		37 0 0 0 0 0 0 0 0 0 27 37 0 0 0 0 0 0 0 0 29 0 0 0 0 0 32 0 0 0 0 27 0 0 0 0 34 0 0 0 0 0 0 22 0 0 0 0 0 0 23 0 0 0 0 0 0 0 0 0 0 0 0 0 0 0 0 26 22 0 0 21 0 0 0 0 0 0 37 0 0 0 21 38 0 0 37 0 26 0 
		38 20 0 0 0 0 21 0 0 0 0 30 0 0 0 32 0 0 0 0 32 0 0 0 39 0 0 0 0 0 0 0 0 0 35 29 0 0 0 0 0 0 20 29 0 0 34 0 0 0 30 0 0 0 0 0 23 0 0 0 0 0 0 0 0 0 21 0 0 0 0 0 0 32 0 0 0 0 0 0 0 0 0 0 0 0 0 0 0 0 
		39 0 0 0 0 39 0 0 0 0 0 0 0 0 0 0 0 0 0 35 0 0 0 35 0 0 0 0 0 0 0 0 0 0 0 0 26 0 0 0 0 0 0 0 0 29 0 0 0 0 34 0 0 0 0 0 0 26 0 29 0 0 36 0 0 40 0 0 0 0 0 0 0 0 23 0 0 0 0 0 0 0 27 0 22 0 0 0 0 0 
		40 0 0 0 0 20 0 0 0 0 0 0 0 0 0 0 0 0 0 32 0 0 0 0 0 0 0 0 0 0 0 0 0 0 0 0 0 0 0 0 0 0 0 0 0 0 0 0 0 0 0 0 36 29 0 0 0 36 0 29 0 0 37 0 0 0 0 0 0 0 0 0 36 26 0 0 0 0 0 0 0 0 0 0 0 0 0 0 0 0 
		41 29 0 0 0 32 20 0 20 0 0 0 0 0 0 27 0 0 0 0 0 30 22 0 0 37 35 0 0 0 0 33 0 0 0 0 0 0 0 20 0 0 0 0 0 0 34 0 0 0 0 27 0 0 0 0 0 0 0 0 0 0 0 0 0 40 0 0 0 0 27 0 0 0 0 0 0 0 0 0 0 0 37 0 0 0 0 20 0 24 
		42 0 0 0 0 0 0 31 0 0 0 0 0 0 0 0 0 0 0 0 22 0 0 0 0 0 0 0 0 0 0 0 0 0 40 0 0 0 22 29 0 0 0 0 0 0 0 0 0 0 0 0 0 0 0 0 0 0 0 0 29 0 40 0 0 0 0 0 20 0 0 0 0 0 0 0 0 0 0 0 0 0 0 0 0 0 0 0 0 0 
		43 0 0 0 0 0 0 0 0 0 0 0 0 0 0 0 39 0 0 0 0 0 27 0 0 0 0 0 0 0 0 0 0 0 0 0 0 0 0 0 0 0 0 0 0 0 36 0 0 0 0 0 35 0 0 0 0 0 0 27 0 0 0 0 0 0 0 0 0 0 0 0 0 0 0 0 0 0 0 0 0 0 0 0 0 0 0 0 0 0 
		44 0 0 0 0 0 0 0 0 0 0 0 0 0 0 0 0 0 0 0 0 0 0 0 0 0 0 0 30 0 0 27 0 0 0 0 0 0 0 0 29 0 0 0 0 0 0 0 36 0 21 21 0 0 0 0 0 0 35 33 0 0 0 0 0 0 0 0 0 0 0 0 0 0 0 0 0 0 0 0 0 0 0 0 0 28 0 0 0 0 
		45 0 0 0 0 0 0 0 0 0 0 0 0 0 0 0 0 0 0 0 0 0 0 0 0 0 0 0 0 37 0 0 0 0 0 0 0 0 0 34 0 0 34 0 36 0 0 0 0 0 0 38 0 0 0 0 37 0 0 0 0 0 0 0 0 0 0 28 0 0 0 0 0 0 0 0 0 0 0 0 0 0 0 34 0 0 0 0 0 0 
		46 0 0 0 0 0 0 36 0 0 35 0 0 0 0 0 0 0 0 0 0 0 0 0 0 33 36 0 0 0 0 0 0 20 0 20 0 0 0 0 0 0 0 0 0 0 0 0 0 0 0 0 0 0 0 0 0 28 35 0 0 0 0 0 20 0 0 0 0 0 0 0 0 0 0 0 0 0 0 35 0 0 0 0 0 0 0 26 0 0 
		47 0 0 0 22 0 0 0 0 0 0 0 0 0 0 0 0 0 0 0 0 0 0 0 0 0 23 0 0 0 0 0 0 0 0 0 0 0 0 0 0 0 0 0 0 36 0 0 0 0 35 0 0 0 34 36 0 0 0 0 0 0 0 0 0 0 0 0 0 0 0 39 0 32 0 0 0 0 0 0 0 0 0 0 0 0 36 0 0 0 
		48 0 0 0 0 0 0 0 0 0 0 0 0 0 0 0 0 0 0 0 0 0 0 0 0 0 0 0 0 0 33 0 0 0 0 0 0 0 0 0 0 0 0 0 0 0 0 0 0 0 0 0 0 0 0 0 0 0 0 0 0 0 0 0 0 0 0 0 0 21 0 36 0 33 0 0 0 0 32 0 0 0 0 0 0 0 0 0 0 0 
		49 26 0 0 0 0 21 0 38 0 39 0 0 0 0 0 0 29 0 0 0 0 0 0 0 0 35 0 0 0 0 0 0 0 0 0 0 0 23 30 34 0 0 0 0 21 0 0 35 0 0 0 0 0 0 0 0 0 0 0 39 0 0 0 0 0 0 0 0 0 0 0 0 0 0 0 0 0 27 0 25 0 0 0 0 0 0 0 0 0 
		50 0 0 31 0 0 0 0 0 0 0 31 0 0 0 0 0 0 0 0 0 37 0 0 0 0 0 0 29 24 0 0 0 0 0 0 0 0 0 0 0 0 27 0 0 21 38 0 0 0 0 0 0 0 0 0 0 0 0 0 0 0 0 0 0 0 0 0 0 0 0 0 0 0 0 0 0 34 24 0 0 0 0 20 0 0 0 0 0 0 
		51 0 0 0 0 32 0 0 0 0 0 0 0 0 0 0 22 0 0 0 0 0 30 0 0 0 0 0 0 0 0 0 0 0 0 0 0 0 0 0 0 36 0 0 35 0 0 0 0 0 0 0 0 0 0 0 0 0 0 0 0 0 0 0 0 0 39 0 0 0 0 0 0 0 0 0 0 0 0 0 0 36 0 0 0 0 0 36 27 0 
		52 0 0 0 0 0 0 0 0 0 0 0 0 0 0 0 23 0 0 0 0 0 0 0 0 32 0 0 0 0 0 0 0 0 0 0 0 0 0 0 0 29 0 0 0 0 0 0 0 0 0 0 0 0 0 0 0 40 0 0 0 0 33 0 0 0 24 0 0 0 28 0 0 0 0 0 0 0 0 0 0 0 29 0 0 0 0 0 0 25 
		53 0 0 0 0 0 0 0 0 0 0 0 0 0 0 0 0 21 0 0 0 0 0 0 0 0 0 0 0 0 0 0 30 0 0 0 0 0 0 0 0 0 0 0 0 0 0 0 34 0 0 0 0 0 0 0 0 0 0 0 0 0 0 0 31 0 0 0 0 0 0 21 0 0 0 25 0 29 0 0 0 22 0 34 0 0 0 0 0 0 
		54 0 31 0 0 0 21 0 0 0 0 0 0 0 0 0 36 0 0 0 0 0 0 0 0 0 0 0 0 0 0 0 0 0 0 0 0 0 0 0 0 0 0 0 0 0 0 0 36 0 0 0 0 0 0 0 0 0 0 0 0 33 0 0 0 0 0 37 36 0 0 32 0 0 0 0 0 36 0 0 0 27 0 0 0 0 0 0 0 0 
		55 0 0 0 0 0 21 0 0 0 0 31 0 0 0 0 0 0 0 0 0 0 0 0 0 0 0 36 39 0 0 0 0 28 0 0 0 0 0 23 0 0 0 0 0 0 37 0 0 0 0 0 0 0 0 0 0 0 0 0 0 0 0 0 21 0 0 0 0 0 0 0 0 0 0 0 0 0 0 0 0 0 0 0 0 0 27 40 0 20 
		56 20 0 0 0 0 20 0 0 0 25 0 0 0 0 0 0 27 0 0 0 0 24 0 0 0 0 0 0 0 0 0 39 0 0 0 0 0 0 0 26 36 0 0 0 0 0 28 0 0 0 0 0 40 0 0 0 0 0 0 0 0 0 0 0 0 0 31 0 0 0 0 21 0 0 0 0 0 0 0 0 0 0 0 22 0 0 0 0 0 
		57 0 0 0 0 0 0 0 0 0 0 0 0 0 30 0 0 0 0 0 0 0 0 26 0 0 0 0 0 0 0 0 0 0 0 0 0 37 0 0 0 0 0 0 0 35 0 35 0 0 0 0 0 0 0 0 0 0 0 0 38 0 0 0 0 0 0 0 0 0 0 0 0 0 0 0 0 0 0 0 0 0 0 0 0 0 0 0 0 0 
		58 0 0 0 0 0 0 0 0 0 0 0 0 20 0 0 0 0 0 30 0 0 0 0 0 33 0 0 0 0 0 0 0 0 0 0 0 0 0 0 29 29 0 0 27 33 0 0 0 0 0 0 0 0 0 0 0 0 0 0 0 0 0 0 0 0 37 0 0 0 0 0 28 0 33 0 0 0 0 0 0 0 0 0 0 0 0 0 0 0 
		59 0 0 0 38 0 0 0 0 0 0 0 0 0 0 0 0 0 0 0 0 0 0 0 0 30 0 0 0 0 0 0 0 0 27 29 0 0 0 0 0 0 0 29 0 0 0 0 0 0 39 0 0 0 0 0 0 0 38 0 0 0 0 0 0 0 0 0 0 0 24 0 0 0 0 0 0 0 0 0 0 0 0 29 0 0 0 0 0 0 
		60 0 0 0 0 27 0 0 0 0 0 0 0 0 0 26 0 0 0 0 0 32 0 0 36 27 0 0 0 0 0 0 0 0 0 0 0 0 0 0 0 0 0 0 0 0 0 0 0 0 0 0 0 0 0 33 0 0 0 0 0 0 0 0 0 0 0 0 0 0 0 0 0 0 0 0 0 0 0 0 25 0 0 0 0 0 0 0 0 0 
		61 0 0 0 0 37 0 0 0 0 23 0 0 27 0 0 20 0 0 0 0 38 0 0 0 0 0 0 0 0 0 0 0 0 0 0 0 0 0 0 36 37 0 40 0 0 0 0 0 0 0 0 0 33 0 0 0 0 0 0 0 0 0 0 0 0 0 0 0 0 0 0 0 0 0 0 0 0 0 0 0 0 26 0 0 0 0 0 0 0 
		62 0 0 0 0 21 37 0 0 0 0 39 0 0 0 0 30 0 0 0 0 0 0 0 0 0 0 0 0 0 0 0 0 0 0 0 0 0 0 0 0 0 0 0 0 0 0 0 0 0 0 0 0 0 0 0 0 0 0 0 0 0 0 0 0 0 21 0 0 0 0 0 0 0 0 24 0 0 0 0 0 0 0 0 0 0 0 0 37 22 
		63 0 0 0 0 0 0 0 0 0 0 0 0 29 0 0 0 0 0 0 0 0 0 35 0 32 0 0 0 0 0 0 27 0 0 0 0 28 0 0 0 0 0 0 0 0 0 20 0 0 0 0 0 0 31 0 21 0 0 0 0 0 0 0 0 25 0 0 0 0 0 0 0 0 0 0 0 0 0 39 0 0 0 0 0 0 0 0 0 0 
		64 0 0 0 0 0 0 0 0 0 0 0 0 0 0 0 0 29 0 0 0 24 0 0 0 0 0 0 0 0 0 0 26 0 0 0 0 0 0 0 40 0 40 0 0 0 0 0 0 0 0 0 0 0 0 0 0 0 0 0 0 0 0 0 25 0 20 0 0 0 0 0 0 0 0 0 0 0 0 0 0 40 0 0 0 0 0 0 0 0 
		65 0 0 0 0 29 0 0 38 0 0 27 0 0 0 0 0 0 0 39 0 32 0 0 0 31 0 0 0 0 0 0 0 0 0 0 0 0 0 21 0 0 0 0 0 0 0 0 0 0 0 0 39 24 0 0 0 0 0 37 0 0 0 21 0 20 0 0 0 0 0 0 0 0 23 0 0 0 0 0 0 0 35 0 0 0 0 0 0 0 
		66 0 0 0 0 0 0 0 0 0 0 0 0 0 0 0 0 0 0 0 31 0 0 0 0 0 0 0 0 0 0 33 0 0 0 0 0 0 26 0 0 0 0 0 0 0 28 0 0 0 0 0 0 0 0 37 0 31 0 0 0 0 0 0 0 0 0 0 0 0 0 0 0 26 0 30 0 0 0 31 0 0 0 0 0 0 39 0 0 0 
		67 0 0 0 33 0 0 33 0 30 0 0 32 0 0 0 0 0 0 0 0 0 0 0 0 0 0 0 0 21 0 0 0 0 0 0 28 0 22 0 0 0 0 20 0 0 0 0 0 0 0 0 0 0 0 36 0 0 0 0 0 0 0 0 0 0 0 0 0 0 0 0 0 0 0 0 0 0 27 0 0 0 0 35 0 0 0 20 0 0 
		68 33 0 0 0 0 0 38 28 0 0 0 0 0 0 29 0 0 0 0 0 0 0 0 0 0 0 0 0 32 0 0 0 0 0 0 0 0 0 0 0 0 0 0 0 0 0 0 0 21 0 0 0 0 0 0 0 0 0 0 0 0 0 0 0 0 0 0 0 0 0 0 0 0 0 0 0 0 0 0 0 0 0 0 0 0 0 0 0 0 
		69 0 0 0 0 25 0 0 0 0 0 0 31 0 0 0 0 0 0 0 0 0 37 0 21 0 0 23 0 0 0 0 0 0 0 0 0 0 0 0 0 0 27 0 0 0 0 0 0 0 0 0 0 28 0 0 0 0 0 0 24 0 0 0 0 0 0 0 0 0 0 35 40 0 0 0 0 0 0 0 0 0 0 0 0 0 0 0 0 0 
		70 0 0 0 0 0 0 0 0 0 0 0 30 0 0 0 0 0 0 0 0 0 0 0 0 0 0 0 0 0 0 20 0 0 21 0 0 0 21 0 0 0 0 0 0 0 0 0 39 36 0 0 0 0 21 32 0 0 0 0 0 0 0 0 0 0 0 0 0 0 35 0 0 0 0 0 0 0 0 0 0 0 0 0 0 0 0 37 0 0 
		71 0 0 0 0 0 0 0 0 0 0 0 0 0 0 0 0 0 0 0 0 0 20 0 0 0 0 21 0 0 0 0 0 0 0 0 0 0 0 0 0 36 0 0 0 0 0 0 0 0 0 0 0 0 0 0 0 21 0 28 0 0 0 0 0 0 0 0 0 0 40 0 0 0 0 0 0 0 0 0 0 0 0 0 0 0 0 29 0 21 
		72 0 0 33 36 0 0 0 0 28 0 20 0 0 0 0 22 0 0 0 20 0 0 0 0 0 0 30 0 35 0 0 0 0 0 0 0 0 0 32 0 26 0 0 0 0 0 0 32 33 0 0 0 0 0 0 0 0 0 0 0 0 0 0 0 0 0 26 0 0 0 0 0 0 0 0 0 0 0 0 0 0 0 0 0 0 0 28 28 0 
		73 0 0 0 0 0 0 0 0 0 0 0 0 0 0 0 0 0 0 0 0 0 40 0 0 0 0 0 0 0 0 0 0 0 0 0 0 0 0 0 23 0 0 0 0 0 0 0 0 0 0 0 0 0 0 0 0 0 0 33 0 0 0 0 0 0 23 0 0 0 0 0 0 0 0 0 0 0 0 0 0 0 0 0 0 0 0 33 0 0 
		74 0 0 0 0 32 0 0 0 0 0 0 0 33 36 0 0 0 0 0 0 0 0 0 0 0 0 30 0 0 0 0 28 0 25 0 0 0 0 0 0 0 0 0 0 0 0 0 0 0 0 0 0 0 25 0 0 0 0 0 0 0 0 24 0 0 0 30 0 0 0 0 0 0 0 0 0 0 0 0 0 0 29 0 34 0 0 26 0 0 
		75 0 22 0 0 0 0 0 0 0 0 0 0 0 0 0 0 0 39 0 0 0 0 0 0 0 0 29 37 0 0 0 33 0 0 0 0 0 0 0 0 0 0 0 0 0 0 0 0 0 0 0 0 0 0 0 0 0 0 0 0 0 0 0 0 0 0 0 0 0 0 0 0 0 0 0 0 0 0 0 0 0 0 0 0 0 0 0 0 0 
		76 0 0 0 0 0 27 37 0 0 0 23 0 0 0 0 0 0 0 0 0 0 0 0 0 0 0 0 23 23 0 0 0 0 0 0 0 0 0 0 0 0 0 0 0 0 0 0 0 0 0 34 0 0 29 36 0 0 0 0 0 0 0 0 0 0 0 0 0 0 0 0 0 0 0 0 0 0 0 0 0 37 0 28 0 23 0 0 0 25 
		77 36 0 0 0 0 0 0 0 40 21 0 0 0 0 0 0 0 0 0 0 0 32 0 0 0 0 0 0 0 0 0 0 0 0 34 0 0 37 0 0 0 0 0 0 0 0 0 0 32 27 24 0 0 0 0 0 0 0 0 0 0 0 0 0 0 0 0 27 0 0 0 0 0 0 0 0 0 0 0 0 0 0 0 0 0 0 0 0 0 
		78 0 0 0 34 0 0 0 0 0 0 0 0 0 0 0 0 0 0 0 0 0 0 0 0 0 33 0 0 0 0 30 0 0 0 0 0 0 0 0 0 0 0 0 0 0 0 35 0 0 0 0 0 0 0 0 0 0 0 0 0 0 0 0 39 0 0 31 0 0 0 0 0 0 0 0 0 0 0 0 22 0 29 0 0 0 25 0 0 0 
		79 0 0 0 0 37 0 0 0 0 0 0 0 0 0 0 22 0 0 0 0 0 0 0 35 0 0 0 0 0 37 0 0 0 0 38 0 0 0 0 0 0 0 0 0 0 0 0 0 0 25 0 0 0 0 0 0 0 0 0 0 25 0 0 0 0 0 0 0 0 0 0 0 0 0 0 0 0 0 22 0 0 0 22 0 0 0 0 0 0 
		80 0 0 0 22 0 0 0 0 0 0 21 0 0 37 0 0 0 0 0 0 0 0 0 0 0 0 0 0 0 0 0 31 0 0 0 0 0 0 0 0 0 0 0 0 0 0 0 0 0 0 0 36 0 22 27 0 0 0 0 0 0 0 0 0 40 0 0 0 0 0 0 0 0 0 0 0 37 0 0 0 0 0 39 36 0 0 0 0 0 
		81 0 0 0 0 0 37 0 22 0 0 0 0 34 0 0 0 0 0 0 0 20 0 32 0 0 0 34 0 0 0 0 0 0 0 0 0 0 21 0 27 0 37 0 0 0 0 0 0 0 0 0 0 29 0 0 0 0 0 0 0 0 26 0 0 0 35 0 0 0 0 0 0 0 0 29 0 0 0 29 0 0 0 0 0 0 0 27 0 0 
		82 0 0 0 0 0 0 39 0 29 0 0 0 0 0 0 0 0 0 0 0 0 0 0 0 0 25 0 0 0 0 38 0 0 0 0 0 0 38 0 0 0 0 0 0 0 34 0 0 0 0 20 0 0 34 0 0 0 0 0 29 0 0 0 0 0 0 0 35 0 0 0 0 0 0 0 0 28 0 0 22 39 0 0 0 0 0 0 0 32 
		83 35 0 0 0 0 0 0 22 0 0 0 0 25 0 0 0 0 0 0 0 31 0 0 0 0 0 40 0 0 0 0 0 0 33 0 0 34 0 0 22 0 0 0 0 0 0 0 0 0 0 0 0 0 0 0 0 22 0 0 0 0 0 0 0 0 0 0 0 0 0 0 0 0 0 34 0 0 0 0 0 36 0 0 0 0 0 0 0 0 
		84 0 0 0 0 0 0 0 0 0 0 0 0 0 0 0 0 0 0 0 21 0 0 0 0 0 0 0 21 26 0 35 0 0 0 0 0 0 0 0 0 0 0 0 0 28 0 0 0 0 0 0 0 0 0 0 0 0 0 0 0 0 0 0 0 0 0 0 0 0 0 0 0 0 0 0 0 23 0 0 0 0 0 0 0 0 0 0 0 0 
		85 0 35 0 0 0 0 0 0 0 0 0 0 0 0 0 0 0 0 0 0 0 0 0 0 0 0 0 0 0 0 28 0 38 0 0 0 0 37 0 0 0 0 0 0 0 0 0 36 0 0 0 0 0 0 0 27 0 0 0 0 0 0 0 0 0 0 39 0 0 0 0 0 0 0 0 0 0 0 25 0 0 0 0 0 0 0 0 0 0 
		86 0 0 0 0 0 0 0 0 0 37 0 29 0 0 0 0 0 0 0 0 0 0 0 0 0 0 28 0 0 0 38 0 0 0 0 0 0 0 0 0 0 20 0 0 0 0 26 0 0 0 0 36 0 0 0 40 0 0 0 0 0 0 0 0 0 0 0 20 0 0 37 29 28 33 26 0 0 0 0 0 0 27 0 0 0 0 0 0 0 
		87 0 0 0 0 0 0 0 0 0 0 0 0 0 0 0 34 0 0 31 0 21 22 0 0 0 0 0 0 0 0 0 0 0 0 0 0 0 26 0 0 0 0 0 0 0 0 0 0 0 0 0 27 0 0 0 0 0 0 0 0 0 0 37 0 0 0 0 0 0 0 0 0 28 0 0 0 0 0 0 0 0 0 0 0 0 0 0 0 0 
		88 0 0 0 21 0 0 0 0 0 40 0 0 0 0 0 0 24 0 0 0 0 0 0 0 20 0 0 0 0 0 0 36 0 0 0 0 0 0 0 0 0 24 0 0 0 0 0 0 0 0 0 0 25 0 0 20 0 0 0 0 0 0 22 0 0 0 0 0 0 0 0 21 0 0 0 0 25 0 0 0 0 0 32 0 0 0 0 0 0 
;
